128
0 30 35 12 55 56 69 125 89 45 
71 85 92 87 32 121 3 91 68 49 
13 37 94 78 115 10 60 72 98 36 
54 64 48 93 107 24 63 102 116 127 
38 22 84 21 8 82 47 75 17 110 
80 86 29 52 31 46 19 83 50 62 
2 65 16 74 9 112 118 96 33 73 
126 106 34 26 100 44 70 67 97 23 
113 43 15 1 101 105 58 5 4 79 
18 77 120 53 88 7 123 61 108 28 
27 11 117 66 76 124 39 122 41 90 
57 59 95 40 111 6 25 119 104 81 
103 99 114 42 20 14 109 51 
